464,-21
646,358
512,237
847,-107
912,-48
580,93
822,212
1125,336
1155,331
773,691
792,748
1045,670
910,721
918,443
994,507
999,88
633,371
563,388
624,424
651,406
771,406
744,469
654,491
626,577
644,520
607,634
630,731
464,833
227,637
